NAME : portcgen-21-22
COMMENT : portcgen N=21, seed=22
TYPE : TSP
DIMENSION : 21
EDGE_WEIGHT_TYPE : EUC_2D
NODE_COORD_SECTION
1 19736 -167694
2 -160163 -23918
3 74850 380674
4 -47584 -76592
5 11956 350971
6 -152460 49945
7 141830 -176530
8 129606 -112558
9 -115804 450378
10 347929 17656
11 -164480 359040
12 -65641 -235277
13 355063 178348
14 -233231 -117557
15 139321 126852
16 127697 32465
17 212809 111708
18 245745 66688
19 17781 144000
20 37287 -305722
21 -232015 -32458
